\ Model Calcul_Borne_Inf_L
\ LP format - for model browsing. Use MPS format to capture full model detail.
Minimize
  2.596652269363403 C2 - 2.946147918701172 C3 - 1.722342729568481 Constant
Subject To
 R0: C0 <= 2.802844762802124
 R1: C0 >= 1.402844667434692
 R2: C1 <= 2.709021091461182
 R3: C1 >= 1.30902099609375
 R4: - 2.879850149154663 C0 + 0.8426412343978882 C1 + C2
   = 0.5241518020629883
 R5: 1.255256772041321 C0 - 2.670398712158203 C1 + C3 = 2.376555442810059
Bounds
 C0 >= 1.392844715118408
 C1 >= 1.299021043777466
 C2 >= 1.747249355316162
 C3 >= 2.343873555478941
 Constant = 1
End
